language ESSENCE' 1.0
letting mainRow be 7
letting mainCol be 7
letting topRows be 4
letting leftCols be 4
letting leftMatrix be [
[1, 2, 0, 0],
[2, 1, 0, 0],
[4, 0, 0, 0],
[1, 1, 1, 0],
[1, 2, 1, 0],
[1, 3, 0, 0],
[4, 0, 0, 0],
]
letting topMatrix be [
[2, 0, 2, 5, 1, 1, 2],
[0, 0, 2, 1, 2, 1, 4],
[0, 0, 0, 0, 0, 2, 0],
[0, 0, 0, 0, 0, 0, 0],

]